c ind 370 369 368 367 366 365 364 363 362 361 360 359 358 357 356 355 354 353 352 351 350 349 348 347 346 345 344 343 342 341 340 339  0
c ind 33 32 31 30 29 28 27 26 25 24 23 22 21 20 19 18 17 16 15 14 13 12 11 10 9 8 7 6 5 4 3 2  0
c ind 433 432 431 430 429 428 427 426 425 424 423 422 421 420 419 418 417 416 415 414 413 412 411 410 409 408 407 406 405 404 403 402  0
c ind 307 306 305 304 303 302 301 300 299 298 297 296 295 294 293 292 291 290 289 288 287 286 285 284 283 282 281 280 279 278 277 276  0
c ind 244 243 242 241 240 239 238 237 236 235 234 233 232 231 230 229 228 227 226 225 224 223 222 221 220 219 218 217 216 215 214 213  0
p cnf 732 1652
1 0
154 0
-275 0
-276 0
-277 0
-278 0
-279 0
-280 0
-281 0
-282 0
-283 0
-284 0
-285 0
-286 0
-287 0
-288 0
-289 0
-290 0
-291 0
-292 0
-293 0
-294 0
-295 0
-296 0
-297 0
-298 0
-299 0
-300 0
-301 0
-302 0
-303 0
-304 0
-305 0
-306 0
-307 0
308 0
309 0
310 0
311 0
312 0
313 0
314 0
315 0
316 0
317 0
318 0
319 0
320 0
321 0
322 0
323 0
324 0
325 0
326 0
327 0
328 0
329 0
330 0
331 0
332 0
333 0
334 0
335 0
336 0
337 0
338 0
-339 0
-340 0
-341 0
-342 0
-343 0
-344 0
-345 0
-346 0
-347 0
-348 0
-349 0
-350 0
-351 0
-352 0
-353 0
-354 0
-355 0
-356 0
-357 0
-358 0
-359 0
-360 0
-361 0
-362 0
-363 0
-364 0
-365 0
-366 0
-367 0
-368 0
-369 0
-370 0
371 0
372 0
373 0
374 0
375 0
376 0
377 0
378 0
379 0
380 0
381 0
382 0
383 0
384 0
385 0
386 0
387 0
388 0
389 0
390 0
391 0
392 0
393 0
394 0
395 0
396 0
397 0
398 0
399 0
400 0
401 0
-464 0
-495 0
-526 0
-642 0
673 0
-2 -64 63 0
-2 64 -63 0
2 -64 -63 0
2 64 63 0
-3 -63 0
-3 62 65 0
3 -65 0
3 -62 63 0
-4 -62 0
-4 61 67 0
4 -67 0
4 -61 62 0
-5 -61 0
-5 60 69 0
5 -69 0
5 -60 61 0
-6 -60 0
-6 59 71 0
6 -71 0
6 -59 60 0
-7 -59 0
-7 58 73 0
7 -73 0
7 -58 59 0
-8 -58 0
-8 57 75 0
8 -75 0
8 -57 58 0
-9 -57 0
-9 56 77 0
9 -77 0
9 -56 57 0
-10 -56 0
-10 55 79 0
10 -79 0
10 -55 56 0
-11 -55 0
-11 54 81 0
11 -81 0
11 -54 55 0
-12 -54 0
-12 53 83 0
12 -83 0
12 -53 54 0
-13 -53 0
-13 52 85 0
13 -85 0
13 -52 53 0
-14 -52 0
-14 51 87 0
14 -87 0
14 -51 52 0
-15 -51 0
-15 50 89 0
15 -89 0
15 -50 51 0
-16 -50 0
-16 49 91 0
16 -91 0
16 -49 50 0
-17 -49 0
-17 48 93 0
17 -93 0
17 -48 49 0
-18 -48 0
-18 47 95 0
18 -95 0
18 -47 48 0
-19 -47 0
-19 46 97 0
19 -97 0
19 -46 47 0
-20 -46 0
-20 45 99 0
20 -99 0
20 -45 46 0
-21 -45 0
-21 44 101 0
21 -101 0
21 -44 45 0
-22 -44 0
-22 43 103 0
22 -103 0
22 -43 44 0
-23 -43 0
-23 42 105 0
23 -105 0
23 -42 43 0
-24 -42 0
-24 41 107 0
24 -107 0
24 -41 42 0
-25 -41 0
-25 40 109 0
25 -109 0
25 -40 41 0
-26 -40 0
-26 39 111 0
26 -111 0
26 -39 40 0
-27 -39 0
-27 38 113 0
27 -113 0
27 -38 39 0
-28 -38 0
-28 37 115 0
28 -115 0
28 -37 38 0
-29 -37 0
-29 36 117 0
29 -117 0
29 -36 37 0
-30 -36 0
-30 35 119 0
30 -119 0
30 -35 36 0
-31 -35 0
-31 34 121 0
31 -121 0
31 -34 35 0
-32 -34 0
-32 -33 123 0
32 -123 0
32 33 34 0
-33 -34 0
-33 -641 0
-33 -643 0
-33 -732 124 0
-33 732 -124 0
33 -123 0
33 -525 0
33 -640 641 0
33 124 643 0
33 -732 -124 0
33 732 124 0
-34 -121 0
-34 -124 0
34 -35 0
34 123 124 0
-35 -119 0
-35 -122 0
35 -36 0
35 121 122 0
-36 -117 0
-36 -120 0
36 -37 0
36 119 120 0
-37 -115 0
-37 -118 0
37 -38 0
37 117 118 0
-38 -113 0
-38 -116 0
38 -39 0
38 115 116 0
-39 -111 0
-39 -114 0
39 -40 0
39 113 114 0
-40 -109 0
-40 -112 0
40 -41 0
40 111 112 0
-41 -107 0
-41 -110 0
41 -42 0
41 109 110 0
-42 -105 0
-42 -108 0
42 -43 0
42 107 108 0
-43 -103 0
-43 -106 0
43 -44 0
43 105 106 0
-44 -101 0
-44 -104 0
44 -45 0
44 103 104 0
-45 -99 0
-45 -102 0
45 -46 0
45 101 102 0
-46 -97 0
-46 -100 0
46 -47 0
46 99 100 0
-47 -95 0
-47 -98 0
47 -48 0
47 97 98 0
-48 -93 0
-48 -96 0
48 -49 0
48 95 96 0
-49 -91 0
-49 -94 0
49 -50 0
49 93 94 0
-50 -89 0
-50 -92 0
50 -51 0
50 91 92 0
-51 -87 0
-51 -90 0
51 -52 0
51 89 90 0
-52 -85 0
-52 -88 0
52 -53 0
52 87 88 0
-53 -83 0
-53 -86 0
53 -54 0
53 85 86 0
-54 -81 0
-54 -84 0
54 -55 0
54 83 84 0
-55 -79 0
-55 -82 0
55 -56 0
55 81 82 0
-56 -77 0
-56 -80 0
56 -57 0
56 79 80 0
-57 -75 0
-57 -78 0
57 -58 0
57 77 78 0
-58 -73 0
-58 -76 0
58 -59 0
58 75 76 0
-59 -71 0
-59 -74 0
59 -60 0
59 73 74 0
-60 -69 0
-60 -72 0
60 -61 0
60 71 72 0
-61 -67 0
-61 -70 0
61 -62 0
61 69 70 0
-62 -65 0
-62 -68 0
62 -63 0
62 67 68 0
-63 -66 0
63 65 66 0
-64 -153 0
-64 -672 0
-64 -66 496 0
-64 -555 -554 0
-64 555 554 0
64 153 0
64 -496 0
64 672 0
64 -555 554 0
64 555 -554 0
-65 -66 0
-66 -155 0
-66 -556 0
-66 -674 0
-66 -152 153 0
-66 -553 554 0
-66 -671 672 0
66 -153 0
66 -496 0
66 -554 0
66 -672 0
66 152 155 0
66 553 556 0
66 671 674 0
-67 -68 0
-68 -157 0
-68 -558 0
-68 -676 0
-68 -151 152 0
-68 -496 497 0
-68 -552 553 0
-68 -670 671 0
68 -152 0
68 -497 0
68 -553 0
68 -671 0
68 151 157 0
68 552 558 0
68 670 676 0
-69 -70 0
-70 -159 0
-70 -560 0
-70 -678 0
-70 -150 151 0
-70 -497 498 0
-70 -551 552 0
-70 -669 670 0
70 -151 0
70 -498 0
70 -552 0
70 -670 0
70 150 159 0
70 551 560 0
70 669 678 0
-71 -72 0
-72 -161 0
-72 -562 0
-72 -680 0
-72 -149 150 0
-72 -498 499 0
-72 -550 551 0
-72 -668 669 0
72 -150 0
72 -499 0
72 -551 0
72 -669 0
72 149 161 0
72 550 562 0
72 668 680 0
-73 -74 0
-74 -163 0
-74 -564 0
-74 -682 0
-74 -148 149 0
-74 -499 500 0
-74 -549 550 0
-74 -667 668 0
74 -149 0
74 -500 0
74 -550 0
74 -668 0
74 148 163 0
74 549 564 0
74 667 682 0
-75 -76 0
-76 -165 0
-76 -566 0
-76 -684 0
-76 -147 148 0
-76 -500 501 0
-76 -548 549 0
-76 -666 667 0
76 -148 0
76 -501 0
76 -549 0
76 -667 0
76 147 165 0
76 548 566 0
76 666 684 0
-77 -78 0
-78 -167 0
-78 -568 0
-78 -686 0
-78 -146 147 0
-78 -501 502 0
-78 -547 548 0
-78 -665 666 0
78 -147 0
78 -502 0
78 -548 0
78 -666 0
78 146 167 0
78 547 568 0
78 665 686 0
-79 -80 0
-80 -169 0
-80 -570 0
-80 -688 0
-80 -145 146 0
-80 -502 503 0
-80 -546 547 0
-80 -664 665 0
80 -146 0
80 -503 0
80 -547 0
80 -665 0
80 145 169 0
80 546 570 0
80 664 688 0
-81 -82 0
-82 -171 0
-82 -572 0
-82 -690 0
-82 -144 145 0
-82 -503 504 0
-82 -545 546 0
-82 -663 664 0
82 -145 0
82 -504 0
82 -546 0
82 -664 0
82 144 171 0
82 545 572 0
82 663 690 0
-83 -84 0
-84 -173 0
-84 -574 0
-84 -692 0
-84 -143 144 0
-84 -504 505 0
-84 -544 545 0
-84 -662 663 0
84 -144 0
84 -505 0
84 -545 0
84 -663 0
84 143 173 0
84 544 574 0
84 662 692 0
-85 -86 0
-86 -175 0
-86 -576 0
-86 -694 0
-86 -142 143 0
-86 -505 506 0
-86 -543 544 0
-86 -661 662 0
86 -143 0
86 -506 0
86 -544 0
86 -662 0
86 142 175 0
86 543 576 0
86 661 694 0
-87 -88 0
-88 -177 0
-88 -578 0
-88 -696 0
-88 -141 142 0
-88 -506 507 0
-88 -542 543 0
-88 -660 661 0
88 -142 0
88 -507 0
88 -543 0
88 -661 0
88 141 177 0
88 542 578 0
88 660 696 0
-89 -90 0
-90 -179 0
-90 -580 0
-90 -698 0
-90 -140 141 0
-90 -507 508 0
-90 -541 542 0
-90 -659 660 0
90 -141 0
90 -508 0
90 -542 0
90 -660 0
90 140 179 0
90 541 580 0
90 659 698 0
-91 -92 0
-92 -181 0
-92 -582 0
-92 -700 0
-92 -139 140 0
-92 -508 509 0
-92 -540 541 0
-92 -658 659 0
92 -140 0
92 -509 0
92 -541 0
92 -659 0
92 139 181 0
92 540 582 0
92 658 700 0
-93 -94 0
-94 -183 0
-94 -584 0
-94 -702 0
-94 -138 139 0
-94 -509 510 0
-94 -539 540 0
-94 -657 658 0
94 -139 0
94 -510 0
94 -540 0
94 -658 0
94 138 183 0
94 539 584 0
94 657 702 0
-95 -96 0
-96 -185 0
-96 -586 0
-96 -704 0
-96 -137 138 0
-96 -510 511 0
-96 -538 539 0
-96 -656 657 0
96 -138 0
96 -511 0
96 -539 0
96 -657 0
96 137 185 0
96 538 586 0
96 656 704 0
-97 -98 0
-98 -187 0
-98 -588 0
-98 -706 0
-98 -136 137 0
-98 -511 512 0
-98 -537 538 0
-98 -655 656 0
98 -137 0
98 -512 0
98 -538 0
98 -656 0
98 136 187 0
98 537 588 0
98 655 706 0
-99 -100 0
-100 -189 0
-100 -590 0
-100 -708 0
-100 -135 136 0
-100 -512 513 0
-100 -536 537 0
-100 -654 655 0
100 -136 0
100 -513 0
100 -537 0
100 -655 0
100 135 189 0
100 536 590 0
100 654 708 0
-101 -102 0
-102 -191 0
-102 -592 0
-102 -710 0
-102 -134 135 0
-102 -513 514 0
-102 -535 536 0
-102 -653 654 0
102 -135 0
102 -514 0
102 -536 0
102 -654 0
102 134 191 0
102 535 592 0
102 653 710 0
-103 -104 0
-104 -193 0
-104 -594 0
-104 -712 0
-104 -133 134 0
-104 -514 515 0
-104 -534 535 0
-104 -652 653 0
104 -134 0
104 -515 0
104 -535 0
104 -653 0
104 133 193 0
104 534 594 0
104 652 712 0
-105 -106 0
-106 -195 0
-106 -596 0
-106 -714 0
-106 -132 133 0
-106 -515 516 0
-106 -533 534 0
-106 -651 652 0
106 -133 0
106 -516 0
106 -534 0
106 -652 0
106 132 195 0
106 533 596 0
106 651 714 0
-107 -108 0
-108 -197 0
-108 -598 0
-108 -716 0
-108 -131 132 0
-108 -516 517 0
-108 -532 533 0
-108 -650 651 0
108 -132 0
108 -517 0
108 -533 0
108 -651 0
108 131 197 0
108 532 598 0
108 650 716 0
-109 -110 0
-110 -199 0
-110 -600 0
-110 -718 0
-110 -130 131 0
-110 -517 518 0
-110 -531 532 0
-110 -649 650 0
110 -131 0
110 -518 0
110 -532 0
110 -650 0
110 130 199 0
110 531 600 0
110 649 718 0
-111 -112 0
-112 -201 0
-112 -602 0
-112 -720 0
-112 -129 130 0
-112 -518 519 0
-112 -530 531 0
-112 -648 649 0
112 -130 0
112 -519 0
112 -531 0
112 -649 0
112 129 201 0
112 530 602 0
112 648 720 0
-113 -114 0
-114 -203 0
-114 -604 0
-114 -722 0
-114 -128 129 0
-114 -519 520 0
-114 -529 530 0
-114 -647 648 0
114 -129 0
114 -520 0
114 -530 0
114 -648 0
114 128 203 0
114 529 604 0
114 647 722 0
-115 -116 0
-116 -205 0
-116 -606 0
-116 -724 0
-116 -127 128 0
-116 -520 521 0
-116 -528 529 0
-116 -646 647 0
116 -128 0
116 -521 0
116 -529 0
116 -647 0
116 127 205 0
116 528 606 0
116 646 724 0
-117 -118 0
-118 -207 0
-118 -608 0
-118 -726 0
-118 -126 127 0
-118 -521 522 0
-118 -527 528 0
-118 -645 646 0
118 -127 0
118 -522 0
118 -528 0
118 -646 0
118 126 207 0
118 527 608 0
118 645 726 0
-119 -120 0
-120 -209 0
-120 -610 0
-120 -728 0
-120 -125 126 0
-120 -522 523 0
-120 -122 527 0
-120 -644 645 0
120 -126 0
120 -523 0
120 -527 0
120 -645 0
120 125 209 0
120 122 610 0
120 644 728 0
-121 -122 0
-122 -211 0
-122 -610 0
-122 -730 0
-122 -124 125 0
-122 -523 524 0
-122 -638 639 0
-122 643 644 0
122 -125 0
122 -524 0
122 -527 0
122 -639 0
122 -644 0
122 124 211 0
122 -643 730 0
-123 -124 0
-124 -211 0
-124 -640 0
-124 -643 0
-124 -524 525 0
124 -125 0
124 -525 0
124 -639 640 0
-125 -209 0
-125 -212 0
125 -126 0
125 211 212 0
-126 -207 0
-126 -210 0
126 -127 0
126 209 210 0
-127 -205 0
-127 -208 0
127 -128 0
127 207 208 0
-128 -203 0
-128 -206 0
128 -129 0
128 205 206 0
-129 -201 0
-129 -204 0
129 -130 0
129 203 204 0
-130 -199 0
-130 -202 0
130 -131 0
130 201 202 0
-131 -197 0
-131 -200 0
131 -132 0
131 199 200 0
-132 -195 0
-132 -198 0
132 -133 0
132 197 198 0
-133 -193 0
-133 -196 0
133 -134 0
133 195 196 0
-134 -191 0
-134 -194 0
134 -135 0
134 193 194 0
-135 -189 0
-135 -192 0
135 -136 0
135 191 192 0
-136 -187 0
-136 -190 0
136 -137 0
136 189 190 0
-137 -185 0
-137 -188 0
137 -138 0
137 187 188 0
-138 -183 0
-138 -186 0
138 -139 0
138 185 186 0
-139 -181 0
-139 -184 0
139 -140 0
139 183 184 0
-140 -179 0
-140 -182 0
140 -141 0
140 181 182 0
-141 -177 0
-141 -180 0
141 -142 0
141 179 180 0
-142 -175 0
-142 -178 0
142 -143 0
142 177 178 0
-143 -173 0
-143 -176 0
143 -144 0
143 175 176 0
-144 -171 0
-144 -174 0
144 -145 0
144 173 174 0
-145 -169 0
-145 -172 0
145 -146 0
145 171 172 0
-146 -167 0
-146 -170 0
146 -147 0
146 169 170 0
-147 -165 0
-147 -168 0
147 -148 0
147 167 168 0
-148 -163 0
-148 -166 0
148 -149 0
148 165 166 0
-149 -161 0
-149 -164 0
149 -150 0
149 163 164 0
-150 -159 0
-150 -162 0
150 -151 0
150 161 162 0
-151 -157 0
-151 -160 0
151 -152 0
151 159 160 0
-152 -155 0
-152 -158 0
152 -153 0
152 157 158 0
-153 -156 0
153 155 156 0
-155 -156 0
-157 -158 0
-159 -160 0
-161 -162 0
-163 -164 0
-165 -166 0
-167 -168 0
-169 -170 0
-171 -172 0
-173 -174 0
-175 -176 0
-177 -178 0
-179 -180 0
-181 -182 0
-183 -184 0
-185 -186 0
-187 -188 0
-189 -190 0
-191 -192 0
-193 -194 0
-195 -196 0
-197 -198 0
-199 -200 0
-201 -202 0
-203 -204 0
-205 -206 0
-207 -208 0
-209 -210 0
-211 -212 0
-213 -245 0
213 214 245 0
-214 -245 0
-215 -246 0
215 -245 246 0
-216 -247 0
216 -246 247 0
-217 -248 0
217 -247 248 0
-218 -249 0
218 -248 249 0
-219 -250 0
219 -249 250 0
-220 -251 0
220 -250 251 0
-221 -252 0
221 -251 252 0
-222 -253 0
222 -252 253 0
-223 -254 0
223 -253 254 0
-224 -255 0
224 -254 255 0
-225 -256 0
225 -255 256 0
-226 -257 0
226 -256 257 0
-227 -258 0
227 -257 258 0
-228 -259 0
228 -258 259 0
-229 -260 0
229 -259 260 0
-230 -261 0
230 -260 261 0
-231 -262 0
231 -261 262 0
-232 -263 0
232 -262 263 0
-233 -264 0
233 -263 264 0
-234 -265 0
234 -264 265 0
-235 -266 0
235 -265 266 0
-236 -267 0
236 -266 267 0
-237 -268 0
237 -267 268 0
-238 -269 0
238 -268 269 0
-239 -270 0
239 -269 270 0
-240 -271 0
240 -270 271 0
-241 -272 0
241 -271 272 0
-242 -273 0
242 -272 273 0
-243 -274 0
243 -273 274 0
244 -274 0
245 -246 0
246 -247 0
247 -248 0
248 -249 0
249 -250 0
250 -251 0
251 -252 0
252 -253 0
253 -254 0
254 -255 0
255 -256 0
256 -257 0
257 -258 0
258 -259 0
259 -260 0
260 -261 0
261 -262 0
262 -263 0
263 -264 0
264 -265 0
265 -266 0
266 -267 0
267 -268 0
268 -269 0
269 -270 0
270 -271 0
271 -272 0
272 -273 0
273 -274 0
-402 -434 0
-402 -465 0
402 403 434 0
402 403 465 0
-403 -434 0
-403 -465 0
-404 -435 0
-404 -466 0
404 -434 435 0
404 -465 466 0
-405 -436 0
-405 -467 0
405 -435 436 0
405 -466 467 0
-406 -437 0
-406 -468 0
406 -436 437 0
406 -467 468 0
-407 -438 0
-407 -469 0
407 -437 438 0
407 -468 469 0
-408 -439 0
-408 -470 0
408 -438 439 0
408 -469 470 0
-409 -440 0
-409 -471 0
409 -439 440 0
409 -470 471 0
-410 -441 0
-410 -472 0
410 -440 441 0
410 -471 472 0
-411 -442 0
-411 -473 0
411 -441 442 0
411 -472 473 0
-412 -443 0
-412 -474 0
412 -442 443 0
412 -473 474 0
-413 -444 0
-413 -475 0
413 -443 444 0
413 -474 475 0
-414 -445 0
-414 -476 0
414 -444 445 0
414 -475 476 0
-415 -446 0
-415 -477 0
415 -445 446 0
415 -476 477 0
-416 -447 0
-416 -478 0
416 -446 447 0
416 -477 478 0
-417 -448 0
-417 -479 0
417 -447 448 0
417 -478 479 0
-418 -449 0
-418 -480 0
418 -448 449 0
418 -479 480 0
-419 -450 0
-419 -481 0
419 -449 450 0
419 -480 481 0
-420 -451 0
-420 -482 0
420 -450 451 0
420 -481 482 0
-421 -452 0
-421 -483 0
421 -451 452 0
421 -482 483 0
-422 -453 0
-422 -484 0
422 -452 453 0
422 -483 484 0
-423 -454 0
-423 -485 0
423 -453 454 0
423 -484 485 0
-424 -455 0
-424 -486 0
424 -454 455 0
424 -485 486 0
-425 -456 0
-425 -487 0
425 -455 456 0
425 -486 487 0
-426 -457 0
-426 -488 0
426 -456 457 0
426 -487 488 0
-427 -458 0
-427 -489 0
427 -457 458 0
427 -488 489 0
-428 -459 0
-428 -490 0
428 -458 459 0
428 -489 490 0
-429 -460 0
-429 -491 0
429 -459 460 0
429 -490 491 0
-430 -461 0
-430 -492 0
430 -460 461 0
430 -491 492 0
-431 -462 0
-431 -493 0
431 -461 462 0
431 -492 493 0
-432 -463 0
-432 -493 494 0
432 -494 0
432 -462 463 0
-433 -494 0
433 -463 0
434 -435 0
435 -436 0
436 -437 0
437 -438 0
438 -439 0
439 -440 0
440 -441 0
441 -442 0
442 -443 0
443 -444 0
444 -445 0
445 -446 0
446 -447 0
447 -448 0
448 -449 0
449 -450 0
450 -451 0
451 -452 0
452 -453 0
453 -454 0
454 -455 0
455 -456 0
456 -457 0
457 -458 0
458 -459 0
459 -460 0
460 -461 0
461 -462 0
462 -463 0
465 -466 0
466 -467 0
467 -468 0
468 -469 0
469 -470 0
470 -471 0
471 -472 0
472 -473 0
473 -474 0
474 -475 0
475 -476 0
476 -477 0
477 -478 0
478 -479 0
479 -480 0
480 -481 0
481 -482 0
482 -483 0
483 -484 0
484 -485 0
485 -486 0
486 -487 0
487 -488 0
488 -489 0
489 -490 0
490 -491 0
491 -492 0
492 -493 0
493 -494 0
496 -497 0
497 -498 0
498 -499 0
499 -500 0
500 -501 0
501 -502 0
502 -503 0
503 -504 0
504 -505 0
505 -506 0
506 -507 0
507 -508 0
508 -509 0
509 -510 0
510 -511 0
511 -512 0
512 -513 0
513 -514 0
514 -515 0
515 -516 0
516 -517 0
517 -518 0
518 -519 0
519 -520 0
520 -521 0
521 -522 0
522 -523 0
523 -524 0
524 -525 0
-527 -608 0
-527 -611 0
527 -528 0
527 610 611 0
-528 -606 0
-528 -609 0
528 -529 0
528 608 609 0
-529 -604 0
-529 -607 0
529 -530 0
529 606 607 0
-530 -602 0
-530 -605 0
530 -531 0
530 604 605 0
-531 -600 0
-531 -603 0
531 -532 0
531 602 603 0
-532 -598 0
-532 -601 0
532 -533 0
532 600 601 0
-533 -596 0
-533 -599 0
533 -534 0
533 598 599 0
-534 -594 0
-534 -597 0
534 -535 0
534 596 597 0
-535 -592 0
-535 -595 0
535 -536 0
535 594 595 0
-536 -590 0
-536 -593 0
536 -537 0
536 592 593 0
-537 -588 0
-537 -591 0
537 -538 0
537 590 591 0
-538 -586 0
-538 -589 0
538 -539 0
538 588 589 0
-539 -584 0
-539 -587 0
539 -540 0
539 586 587 0
-540 -582 0
-540 -585 0
540 -541 0
540 584 585 0
-541 -580 0
-541 -583 0
541 -542 0
541 582 583 0
-542 -578 0
-542 -581 0
542 -543 0
542 580 581 0
-543 -576 0
-543 -579 0
543 -544 0
543 578 579 0
-544 -574 0
-544 -577 0
544 -545 0
544 576 577 0
-545 -572 0
-545 -575 0
545 -546 0
545 574 575 0
-546 -570 0
-546 -573 0
546 -547 0
546 572 573 0
-547 -568 0
-547 -571 0
547 -548 0
547 570 571 0
-548 -566 0
-548 -569 0
548 -549 0
548 568 569 0
-549 -564 0
-549 -567 0
549 -550 0
549 566 567 0
-550 -562 0
-550 -565 0
550 -551 0
550 564 565 0
-551 -560 0
-551 -563 0
551 -552 0
551 562 563 0
-552 -558 0
-552 -561 0
552 -553 0
552 560 561 0
-553 -556 0
-553 -559 0
553 -554 0
553 558 559 0
-554 -557 0
554 556 557 0
555 641 0
-556 -557 0
-557 -612 0
557 559 612 0
-558 -559 0
-559 -612 0
-560 -561 0
-561 -613 0
561 -612 613 0
-562 -563 0
-563 -614 0
563 -613 614 0
-564 -565 0
-565 -615 0
565 -614 615 0
-566 -567 0
-567 -616 0
567 -615 616 0
-568 -569 0
-569 -617 0
569 -616 617 0
-570 -571 0
-571 -618 0
571 -617 618 0
-572 -573 0
-573 -619 0
573 -618 619 0
-574 -575 0
-575 -620 0
575 -619 620 0
-576 -577 0
-577 -621 0
577 -620 621 0
-578 -579 0
-579 -622 0
579 -621 622 0
-580 -581 0
-581 -623 0
581 -622 623 0
-582 -583 0
-583 -624 0
583 -623 624 0
-584 -585 0
-585 -625 0
585 -624 625 0
-586 -587 0
-587 -626 0
587 -625 626 0
-588 -589 0
-589 -627 0
589 -626 627 0
-590 -591 0
-591 -628 0
591 -627 628 0
-592 -593 0
-593 -629 0
593 -628 629 0
-594 -595 0
-595 -630 0
595 -629 630 0
-596 -597 0
-597 -631 0
597 -630 631 0
-598 -599 0
-599 -632 0
599 -631 632 0
-600 -601 0
-601 -633 0
601 -632 633 0
-602 -603 0
-603 -634 0
603 -633 634 0
-604 -605 0
-605 -635 0
605 -634 635 0
-606 -607 0
-607 -636 0
607 -635 636 0
-608 -609 0
-609 -637 0
609 -636 637 0
-610 -611 0
-611 -638 0
611 -637 638 0
612 -613 0
613 -614 0
614 -615 0
615 -616 0
616 -617 0
617 -618 0
618 -619 0
619 -620 0
620 -621 0
621 -622 0
622 -623 0
623 -624 0
624 -625 0
625 -626 0
626 -627 0
627 -628 0
628 -629 0
629 -630 0
630 -631 0
631 -632 0
632 -633 0
633 -634 0
634 -635 0
635 -636 0
636 -637 0
637 -638 0
638 -639 0
639 -640 0
640 -641 0
-643 -644 0
643 -730 0
-644 -728 0
-644 -731 0
644 -645 0
644 730 731 0
-645 -726 0
-645 -729 0
645 -646 0
645 728 729 0
-646 -724 0
-646 -727 0
646 -647 0
646 726 727 0
-647 -722 0
-647 -725 0
647 -648 0
647 724 725 0
-648 -720 0
-648 -723 0
648 -649 0
648 722 723 0
-649 -718 0
-649 -721 0
649 -650 0
649 720 721 0
-650 -716 0
-650 -719 0
650 -651 0
650 718 719 0
-651 -714 0
-651 -717 0
651 -652 0
651 716 717 0
-652 -712 0
-652 -715 0
652 -653 0
652 714 715 0
-653 -710 0
-653 -713 0
653 -654 0
653 712 713 0
-654 -708 0
-654 -711 0
654 -655 0
654 710 711 0
-655 -706 0
-655 -709 0
655 -656 0
655 708 709 0
-656 -704 0
-656 -707 0
656 -657 0
656 706 707 0
-657 -702 0
-657 -705 0
657 -658 0
657 704 705 0
-658 -700 0
-658 -703 0
658 -659 0
658 702 703 0
-659 -698 0
-659 -701 0
659 -660 0
659 700 701 0
-660 -696 0
-660 -699 0
660 -661 0
660 698 699 0
-661 -694 0
-661 -697 0
661 -662 0
661 696 697 0
-662 -692 0
-662 -695 0
662 -663 0
662 694 695 0
-663 -690 0
-663 -693 0
663 -664 0
663 692 693 0
-664 -688 0
-664 -691 0
664 -665 0
664 690 691 0
-665 -686 0
-665 -689 0
665 -666 0
665 688 689 0
-666 -684 0
-666 -687 0
666 -667 0
666 686 687 0
-667 -682 0
-667 -685 0
667 -668 0
667 684 685 0
-668 -680 0
-668 -683 0
668 -669 0
668 682 683 0
-669 -678 0
-669 -681 0
669 -670 0
669 680 681 0
-670 -676 0
-670 -679 0
670 -671 0
670 678 679 0
-671 -674 0
-671 -677 0
671 -672 0
671 676 677 0
-672 -675 0
672 674 675 0
-674 -675 0
-676 -677 0
-678 -679 0
-680 -681 0
-682 -683 0
-684 -685 0
-686 -687 0
-688 -689 0
-690 -691 0
-692 -693 0
-694 -695 0
-696 -697 0
-698 -699 0
-700 -701 0
-702 -703 0
-704 -705 0
-706 -707 0
-708 -709 0
-710 -711 0
-712 -713 0
-714 -715 0
-716 -717 0
-718 -719 0
-720 -721 0
-722 -723 0
-724 -725 0
-726 -727 0
-728 -729 0
-730 -731 0
